n = 100;
C = 26525;
w = [127,572,901,415,801,698,923,736,679,74,475,5,683,655,812,453,886,441,215,742,657,441,388,86,982,722,814,213,306,369,47,881,302,286,782,169,726,930,600,630,418,131,684,846,355,687,356,411,664,910,689,220,897,570,231,595,611,883,921,199,270,430,325,234,179,678,811,765,955,294,226,715,300,438,804,524,132,876,11,123,683,996,900,338,532,651,203,619,284,457,391,602,455,933,271,842,655,789,453,5];
p = [127,572,901,415,801,698,923,736,679,74,475,5,683,655,812,453,886,441,215,742,657,441,388,86,982,722,814,213,306,369,47,881,302,286,782,169,726,930,600,630,418,131,684,846,355,687,356,411,664,910,689,220,897,570,231,595,611,883,921,199,270,430,325,234,179,678,811,765,955,294,226,715,300,438,804,524,132,876,11,123,683,996,900,338,532,651,203,619,284,457,391,602,455,933,271,842,655,789,453,5];
